nNurses = 81;
nHours = 38;
minHours = 10;
maxHours = 12;
maxConsec = 12;
maxPresence = 30;
demand = [25, 22, 18, 17, 20, 23, 23, 21, 21, 18, 19, 23, 24, 23, 18, 18, 22, 26, 21, 21, 25, 22, 24, 23, 18, 22, 23, 21, 19, 17, 13, 12, 11, 11, 14, 9, 14, 12];
